INPUT_PARAMETERS
suffix                  MgO
ntype                   2
pseudo_dir              ./
orbital_dir		./
ecutwfc                 100             # Rydberg
scf_thr                 1e-4		# Rydberg
basis_type              lcao            
calculation             scf		# this is the key parameter telling abacus to do a scf calculation
